N = 70;
M = 162;
Edge_Start = [1, 1, 2, 3, 3, 5, 5, 6, 7, 7, 8, 9, 9, 10, 11, 12, 13, 14, 15, 16, 17, 17, 18, 19, 20, 21, 22, 23, 24, 24, 25, 26, 26, 27, 28, 29, 30, 31, 32, 32, 33, 34, 34, 36, 37, 38, 39, 39, 40, 41, 41, 42, 43, 44, 45, 45, 46, 47, 48, 48, 49, 50, 51, 52, 52, 53, 54, 54, 55, 56, 56, 58, 58, 60, 61, 62, 63, 64, 66, 68, 69, 2, 12, 3, 4, 14, 6, 16, 7, 8, 18, 9, 10, 20, 11, 22, 13, 25, 15, 27, 17, 18, 29, 19, 31, 21, 22, 23, 35, 25, 36, 26, 27, 38, 28, 40, 30, 31, 32, 33, 44, 34, 35, 46, 37, 49, 39, 40, 51, 41, 42, 53, 43, 44, 45, 46, 57, 47, 59, 49, 60, 50, 51, 52, 53, 64, 54, 55, 66, 56, 57, 68, 59, 70, 61, 62, 63, 64, 65, 67, 69, 70];
Edge_End = [2, 12, 3, 4, 14, 6, 16, 7, 8, 18, 9, 10, 20, 11, 22, 13, 25, 15, 27, 17, 18, 29, 19, 31, 21, 22, 23, 35, 25, 36, 26, 27, 38, 28, 40, 30, 31, 32, 33, 44, 34, 35, 46, 37, 49, 39, 40, 51, 41, 42, 53, 43, 44, 45, 46, 57, 47, 59, 49, 60, 50, 51, 52, 53, 64, 54, 55, 66, 56, 57, 68, 59, 70, 61, 62, 63, 64, 65, 67, 69, 70, 1, 1, 2, 3, 3, 5, 5, 6, 7, 7, 8, 9, 9, 10, 11, 12, 13, 14, 15, 16, 17, 17, 18, 19, 20, 21, 22, 23, 24, 24, 25, 26, 26, 27, 28, 29, 30, 31, 32, 32, 33, 34, 34, 36, 37, 38, 39, 39, 40, 41, 41, 42, 43, 44, 45, 45, 46, 47, 48, 48, 49, 50, 51, 52, 52, 53, 54, 54, 55, 56, 56, 58, 58, 60, 61, 62, 63, 64, 66, 68, 69];
L = [12, 9, 11, 19, 15, 12, 5, 4, 9, 15, 15, 4, 2, 9, 6, 1, 10, 10, 14, 9, 8, 18, 1, 6, 17, 1, 3, 12, 1, 7, 7, 16, 11, 17, 1, 10, 1, 2, 8, 11, 15, 6, 4, 5, 13, 16, 17, 12, 1, 19, 6, 6, 15, 17, 16, 6, 11, 12, 15, 11, 9, 12, 16, 8, 2, 4, 11, 17, 1, 18, 16, 16, 12, 7, 12, 9, 11, 8, 3, 12, 6, 12, 9, 11, 19, 15, 12, 5, 4, 9, 15, 15, 4, 2, 9, 6, 1, 10, 10, 14, 9, 8, 18, 1, 6, 17, 1, 3, 12, 1, 7, 7, 16, 11, 17, 1, 10, 1, 2, 8, 11, 15, 6, 4, 5, 13, 16, 17, 12, 1, 19, 6, 6, 15, 17, 16, 6, 11, 12, 15, 11, 9, 12, 16, 8, 2, 4, 11, 17, 1, 18, 16, 16, 12, 7, 12, 9, 11, 8, 3, 12, 6];
T = [14, 1, 4, 21, 16, 15, 7, 3, 8, 12, 19, 11, 1, 17, 11, 2, 17, 11, 5, 8, 1, 23, 1, 18, 19, 11, 6, 9, 1, 8, 5, 12, 10, 17, 3, 6, 2, 11, 8, 17, 17, 14, 4, 7, 4, 7, 16, 14, 6, 16, 7, 15, 6, 26, 13, 7, 9, 19, 21, 2, 14, 4, 17, 7, 2, 1, 9, 14, 1, 17, 17, 14, 16, 1, 12, 7, 1, 9, 1, 6, 16, 14, 1, 4, 21, 16, 15, 7, 3, 8, 12, 19, 11, 1, 17, 11, 2, 17, 11, 5, 8, 1, 23, 1, 18, 19, 11, 6, 9, 1, 8, 5, 12, 10, 17, 3, 6, 2, 11, 8, 17, 17, 14, 4, 7, 4, 7, 16, 14, 6, 16, 7, 15, 6, 26, 13, 7, 9, 19, 21, 2, 14, 4, 17, 7, 2, 1, 9, 14, 1, 17, 17, 14, 16, 1, 12, 7, 1, 9, 1, 6, 16];
Lower_Bound = [0, 14, 18, 39, 163, 162, 159, 167, 182, 179, 162, 1, 3, 34, 42, 156, 148, 147, 146, 181, 162, 151, 145, 21, 20, 25, 37, 54, 136, 130, 128, 117, 125, 122, 136, 29, 36, 35, 42, 57, 63, 79, 94, 100, 105, 118, 127, 61, 40, 54, 56, 73, 70, 71, 80, 81, 98, 136, 146, 63, 64, 76, 76, 75, 84, 85, 86, 98, 104, 120];
Upper_Bound = [0, 14, 18, 39, 163, 162, 159, 167, 182, 179, 162, 1, 3, 34, 42, 156, 148, 147, 146, 181, 162, 151, 145, 21, 20, 25, 37, 54, 136, 130, 128, 117, 125, 122, 136, 29, 36, 35, 42, 57, 63, 79, 94, 100, 105, 118, 127, 61, 40, 54, 56, 73, 70, 71, 80, 81, 98, 136, 146, 63, 64, 76, 76, 75, 84, 85, 86, 98, 104, 120];
Start = 1;
End = 70;
Time = 120;
